%NoSave
%NProcShared=4
%Mem=4GB
%chk=<name>.chk
#P B3LYP/cc-pVQZ scf=(xqc,conver=10,maxcycle=999) Int(Ultrafine) NoSymm Output=WFX

Title Card Required

0 1
<xyz>

<name>.wfx


