%NoSave
%NProcShared=4
%Mem=4GB
%chk=ethane_opt_align_angleplus_S_H5C1C2C7.chk
#P B3LYP/cc-pVQZ Opt(Modredundant,MaxCycles=999,VeryTight) scf=(xqc,conver=10,maxcycle=999) Int(Ultrafine) NoSymm

Torsion of dihedral H5-C1-C2-H7, C1 fixed at origin

0 1
C  0.000000  0.000000  0.000000
C  1.526925 -0.000000  0.000000
H -0.397173  1.015461  0.000000
H -0.397164 -0.507733  0.879416
H -0.397164 -0.507733 -0.879416
H  1.924095 -1.015462 -0.000000
H  1.924090  0.507731 -0.879417
H  1.924090  0.507731  0.879417

X 1 F
D 5 1 2 7 S 180 1.0



